GLPSOL--GLPK LP/MIP Solver 5.0
Parameter(s) specified in the command line:
 --lp ../modeles/5_179.lp --log 5_179.log
Reading problem data from '../modeles/5_179.lp'...
916 rows, 1800 columns, 6290 non-zeros
895 integer variables, all of which are binary
2727 lines were read
GLPK Integer Optimizer 5.0
916 rows, 1800 columns, 6290 non-zeros
895 integer variables, all of which are binary
Preprocessing...
890 constraint coefficient(s) were reduced
916 rows, 1795 columns, 6285 non-zeros
895 integer variables, all of which are binary
Scaling...
 A: min|aij| =  1.248e-04  max|aij| =  4.000e+00  ratio =  3.204e+04
GM: min|aij| =  7.474e-02  max|aij| =  1.338e+01  ratio =  1.790e+02
EQ: min|aij| =  5.587e-03  max|aij| =  1.000e+00  ratio =  1.790e+02
2N: min|aij| =  3.906e-03  max|aij| =  1.758e+00  ratio =  4.501e+02
Constructing initial basis...
Size of triangular part is 916
Solving LP relaxation...
GLPK Simplex Optimizer 5.0
916 rows, 1795 columns, 6285 non-zeros
      0: obj =   1.000000000e+01 inf =   2.450e+01 (11)
     64: obj =   4.997034956e-01 inf =   0.000e+00 (0)
*   233: obj =  -2.235370112e+00 inf =   2.042e-15 (0)
OPTIMAL LP SOLUTION FOUND
Integer optimization begins...
Long-step dual simplex will be used
+   233: mip =     not found yet >=              -inf        (1; 0)
+   437: >>>>>  -2.235370112e+00 >=  -2.235370112e+00   0.0% (203; 0)
+   437: mip =  -2.235370112e+00 >=     tree is empty   0.0% (0; 405)
INTEGER OPTIMAL SOLUTION FOUND
Time used:   0.3 secs
Memory used: 2.7 Mb (2813789 bytes)
